p cnf 41 18
-1 30 0 
-2 31 0 
-3 -4 32 0 
-3 -5 32 0 
-6 -7 -8 33 0 
-7 33 0 
-9 33 0 
-1 -12 34 0 
-12 35 0 
-14 27 36 0 
-15 20 21 22 23 24 25 26 -17 13 35 0 
-22 15 20 21 23 24 25 26 37 0 
-23 15 20 21 22 24 25 26 38 0 
-15 20 21 22 23 24 25 26 34 0 
-23 15 20 21 22 24 25 26 39 0 
-27 14 36 0 
-28 40 0 
-29 -12 41 0 
